instances/knapsack/discrete_knapsack_uncertainty/knapsack_150_6.lp
\ Model knapsack_150_6
\ LP format - for model browsing. Use MPS format to capture full model detail.
\ Signature: 0x1d3d114bfbe69093
Minimize
  - 19 x[0] - 88 x[1] - 69 x[2] - 49 x[3] - 19 x[4] - 66 x[5] - 55 x[6]
   - 5 x[7] - 96 x[8] - 100 x[9] - 12 x[10] - 52 x[11] - 12 x[12] - 3 x[13]
   - 100 x[14] - 13 x[15] - 7 x[16] - 79 x[17] - 4 x[18] - 35 x[19]
   - 19 x[20] - 76 x[21] - 33 x[22] - 17 x[23] - 78 x[24] - 48 x[25]
   - x[26] - 85 x[27] - 23 x[28] - 38 x[29] - 94 x[30] - 37 x[31]
   - 17 x[32] - 16 x[33] - 37 x[34] - 98 x[35] - 6 x[36] - 80 x[37]
   - 8 x[38] - 65 x[39] - 37 x[40] - 27 x[41] - 59 x[42] - 24 x[43]
   - 72 x[44] - 76 x[45] - 2 x[46] - 50 x[47] - 70 x[48] - 75 x[49]
   - 96 x[50] - 8 x[51] - 76 x[52] - 94 x[53] - 49 x[54] - 83 x[55]
   - 4 x[56] - 69 x[57] - 37 x[58] - 92 x[59] - 69 x[60] - 43 x[61]
   - 79 x[62] - 19 x[63] - 32 x[64] - 38 x[65] - 90 x[66] - 59 x[67]
   - 26 x[68] - 67 x[69] - 50 x[70] - 16 x[71] - 2 x[72] - 19 x[73]
   - 96 x[74] - 7 x[75] - 99 x[76] - 54 x[77] - 89 x[78] - 33 x[79]
   - 96 x[80] - 59 x[81] - 11 x[82] - 55 x[83] - 62 x[84] - 98 x[85]
   - 67 x[86] - 44 x[87] - 29 x[88] - 76 x[89] - 19 x[90] - 95 x[91]
   - 31 x[92] - 98 x[93] - 33 x[94] - 76 x[95] - 22 x[96] - 21 x[97]
   - 94 x[98] - 30 x[99] - 94 x[100] - 23 x[101] - 8 x[102] - 55 x[103]
   - 72 x[104] - 4 x[105] - 55 x[106] - 78 x[107] - 75 x[108] - 22 x[109]
   - 15 x[110] - 91 x[111] - 27 x[112] - x[113] - 95 x[114] - 50 x[115]
   - 80 x[116] - 66 x[117] - 55 x[118] - 92 x[119] - 27 x[120] - 92 x[121]
   - 35 x[122] - 40 x[123] - 29 x[124] - 10 x[125] - 50 x[126] - 67 x[127]
   - 61 x[128] - 42 x[129] - 56 x[130] - 84 x[131] - 49 x[132] - 72 x[133]
   - 51 x[134] - x[135] - 58 x[136] - 15 x[137] - 76 x[138] - 39 x[139]
   - 91 x[140] - 58 x[141] - 83 x[142] - 5 x[143] - 13 x[144] - 76 x[145]
   - 50 x[146] - 36 x[147] - 78 x[148] - 96 x[149]
Subject To
 primal_upper: 9 x[0] + 25 x[1] + 23 x[2] + 48 x[3] + 21 x[4] + 67 x[5]
   + 58 x[6] + 41 x[7] + 22 x[8] + 79 x[9] + 9 x[10] + 92 x[11] + 97 x[12]
   + 77 x[13] + 30 x[14] + 38 x[15] + 70 x[16] + 9 x[17] + 22 x[18]
   + 75 x[19] + 82 x[20] + 85 x[21] + 29 x[22] + 64 x[23] + 26 x[24]
   + 9 x[25] + 35 x[26] + 69 x[27] + 43 x[28] + 92 x[29] + 87 x[30]
   + 81 x[31] + 41 x[32] + 34 x[33] + 93 x[34] + 62 x[35] + 33 x[36]
   + 10 x[37] + 29 x[38] + 16 x[39] + 32 x[40] + 19 x[41] + 67 x[42]
   + 67 x[43] + 92 x[44] + 68 x[45] + 67 x[46] + 35 x[47] + 12 x[48]
   + 45 x[49] + 68 x[50] + 33 x[51] + 18 x[52] + 33 x[53] + 94 x[54]
   + 65 x[55] + 34 x[56] + 20 x[57] + 37 x[58] + 47 x[59] + 54 x[60]
   + 96 x[61] + 97 x[62] + 16 x[63] + 85 x[64] + 5 x[65] + 82 x[66]
   + 8 x[67] + 5 x[68] + 87 x[69] + 71 x[70] + 87 x[71] + 59 x[72]
   + 96 x[73] + 17 x[74] + 14 x[75] + 60 x[76] + 56 x[77] + 78 x[78]
   + 84 x[79] + 47 x[80] + 59 x[81] + 52 x[82] + 63 x[83] + 59 x[84]
   + 7 x[85] + 57 x[86] + 21 x[87] + 59 x[88] + 80 x[89] + 18 x[90]
   + 42 x[91] + 70 x[92] + 77 x[93] + 81 x[94] + 74 x[95] + 62 x[96]
   + 22 x[97] + 37 x[98] + 49 x[99] + 26 x[100] + 69 x[101] + 23 x[102]
   + 81 x[103] + 30 x[104] + 43 x[105] + 92 x[106] + 12 x[107] + 40 x[108]
   + 90 x[109] + 80 x[110] + 60 x[111] + 22 x[112] + 78 x[113] + 98 x[114]
   + 56 x[115] + 52 x[116] + 26 x[117] + 62 x[118] + 42 x[119] + 89 x[120]
   + 98 x[121] + 81 x[122] + 72 x[123] + 26 x[124] + 92 x[125] + 17 x[126]
   + 25 x[127] + 16 x[128] + 72 x[129] + 55 x[130] + 10 x[131] + 48 x[132]
   + 77 x[133] + 78 x[134] + 47 x[135] + 90 x[136] + 20 x[137] + 39 x[138]
   + x[139] + 64 x[140] + 6 x[141] + 28 x[142] + 48 x[143] + 42 x[144]
   + 75 x[145] + 39 x[146] + 88 x[147] + 82 x[148] + 19 x[149] + 0.9 r[0]
   + 2.5 r[1] + 2.3 r[2] + 4.8 r[3] + 2.1 r[4] + 6.7 r[5] + 5.8 r[6]
   + 4.1 r[7] + 2.2 r[8] + 7.9 r[9] + 0.9 r[10] + 9.2 r[11] + 9.7 r[12]
   + 7.7 r[13] + 3 r[14] + 3.8 r[15] + 7 r[16] + 0.9 r[17] + 2.2 r[18]
   + 7.5 r[19] + 8.2 r[20] + 8.5 r[21] + 2.9 r[22] + 6.4 r[23] + 2.6 r[24]
   + 0.9 r[25] + 3.5 r[26] + 6.9 r[27] + 4.3 r[28] + 9.2 r[29] + 8.7 r[30]
   + 8.1 r[31] + 4.1 r[32] + 3.4 r[33] + 9.3 r[34] + 6.2 r[35] + 3.3 r[36]
   + r[37] + 2.9 r[38] + 1.6 r[39] + 3.2 r[40] + 1.9 r[41] + 6.7 r[42]
   + 6.7 r[43] + 9.2 r[44] + 6.8 r[45] + 6.7 r[46] + 3.5 r[47] + 1.2 r[48]
   + 4.5 r[49] + 6.8 r[50] + 3.3 r[51] + 1.8 r[52] + 3.3 r[53] + 9.4 r[54]
   + 6.5 r[55] + 3.4 r[56] + 2 r[57] + 3.7 r[58] + 4.7 r[59] + 5.4 r[60]
   + 9.6 r[61] + 9.7 r[62] + 1.6 r[63] + 8.5 r[64] + 0.5 r[65] + 8.2 r[66]
   + 0.8 r[67] + 0.5 r[68] + 8.7 r[69] + 7.1 r[70] + 8.7 r[71] + 5.9 r[72]
   + 9.6 r[73] + 1.7 r[74] + 1.4 r[75] + 6 r[76] + 5.6 r[77] + 7.8 r[78]
   + 8.4 r[79] + 4.7 r[80] + 5.9 r[81] + 5.2 r[82] + 6.3 r[83] + 5.9 r[84]
   + 0.7 r[85] + 5.7 r[86] + 2.1 r[87] + 5.9 r[88] + 8 r[89] + 1.8 r[90]
   + 4.2 r[91] + 7 r[92] + 7.7 r[93] + 8.1 r[94] + 7.4 r[95] + 6.2 r[96]
   + 2.2 r[97] + 3.7 r[98] + 4.9 r[99] + 2.6 r[100] + 6.9 r[101]
   + 2.3 r[102] + 8.1 r[103] + 3 r[104] + 4.3 r[105] + 9.2 r[106]
   + 1.2 r[107] + 4 r[108] + 9 r[109] + 8 r[110] + 6 r[111] + 2.2 r[112]
   + 7.8 r[113] + 9.8 r[114] + 5.6 r[115] + 5.2 r[116] + 2.6 r[117]
   + 6.2 r[118] + 4.2 r[119] + 8.9 r[120] + 9.8 r[121] + 8.1 r[122]
   + 7.2 r[123] + 2.6 r[124] + 9.2 r[125] + 1.7 r[126] + 2.5 r[127]
   + 1.6 r[128] + 7.2 r[129] + 5.5 r[130] + r[131] + 4.8 r[132]
   + 7.7 r[133] + 7.8 r[134] + 4.7 r[135] + 9 r[136] + 2 r[137]
   + 3.9 r[138] + 0.1 r[139] + 6.4 r[140] + 0.6 r[141] + 2.8 r[142]
   + 4.8 r[143] + 4.2 r[144] + 7.5 r[145] + 3.9 r[146] + 8.8 r[147]
   + 8.2 r[148] + 1.9 r[149] <= 733
 primal_lower: 0.6382408606132902 x[0] + 2.107877934967607 x[1]
   + 0.1331792471612559 x[2] + 0.4116347999165533 x[3]
   + 0.0434003017660163 x[4] + 0.5872767020273594 x[5]
   + 4.906211493472088 x[6] + 0.01794898720314 x[7]
   + 2.911580792475212 x[8] + 2.57956964019134 x[9]
   + 3.044603373536603 x[10] + 0.2558883061154467 x[11]
   + 4.381580404270685 x[12] + 0.1880285385800895 x[13]
   + 1.817717985993937 x[14] + 0.5688465096819429 x[15]
   + 1.154033032629739 x[16] + 2.485793888236291 x[17]
   + 2.243987291197522 x[18] + 2.404262080672527 x[19]
   + 4.192350499178394 x[20] + 2.003095785651373 x[21]
   + 1.744060542443395 x[22] + 4.346222752703176 x[23]
   + 3.825213634061406 x[24] + 4.45123708836634 x[25]
   + 0.8984829302739121 x[26] + 3.980330517379339 x[27]
   + 1.504609007109984 x[28] + 1.81159181631192 x[29]
   + 1.502184159015989 x[30] + 2.867753373450522 x[31]
   + 1.852766542306223 x[32] + 4.022611612972085 x[33]
   + 0.8137679121931723 x[34] + 0.6327576712470994 x[35]
   + 2.713563172845529 x[36] + 3.945781529666564 x[37]
   + 3.354366099504166 x[38] + 4.720681547111411 x[39]
   + 4.512259071101535 x[40] + 1.034325068105473 x[41]
   + 3.723898685463074 x[42] + 0.00910674111083688 x[43]
   + 1.435577720998194 x[44] + 2.040117478215025 x[45]
   + 4.791896465157695 x[46] + 4.971015872022412 x[47]
   + 2.858374568417653 x[48] + 4.417213109763437 x[49]
   + 4.452890750855508 x[50] + 3.702930685245731 x[51]
   + 4.884727097397698 x[52] + 0.4383044940189528 x[53]
   + 4.604572087264582 x[54] + 3.946595388473125 x[55]
   + 0.735665619225133 x[56] + 4.4527428602611 x[57]
   + 3.909067513519583 x[58] + 0.1174934298894885 x[59]
   + 3.066063158832497 x[60] + 4.7004941006093 x[61]
   + 3.891958786998507 x[62] + 4.998313506711965 x[63]
   + 3.0345101135823 x[64] + 1.023508262589073 x[65]
   + 2.867697160955231 x[66] + 1.763259930230768 x[67]
   + 1.972530057307952 x[68] + 4.255876561790477 x[69]
   + 1.778071664320598 x[70] + 1.450375073290865 x[71]
   + 4.558379428964164 x[72] + 2.932488764045849 x[73]
   + 3.262121022673822 x[74] + 0.2056999096120521 x[75]
   + 4.522655683781882 x[76] + 0.735517823571968 x[77]
   + 2.974371264382824 x[78] + 0.0284255992026566 x[79]
   + 1.779507398861842 x[80] + 1.9722206346132 x[81]
   + 2.874521286933957 x[82] + 2.415288541546086 x[83]
   + 0.2550185962377529 x[84] + 3.799959206244127 x[85]
   + 1.64721518246052 x[86] + 1.879189490782553 x[87]
   + 2.779968449582999 x[88] + 3.33332432290753 x[89]
   + 0.5596407574985159 x[90] + 3.489417107421433 x[91]
   + 4.445913124787584 x[92] + 4.987001448051489 x[93]
   + 2.952084867484936 x[94] + 3.281313361889985 x[95]
   + 3.727965569398793 x[96] + 2.156324237148508 x[97]
   + 4.543353942291708 x[98] + 4.453390797084182 x[99]
   + 3.348050320345592 x[100] + 1.287795868778805 x[101]
   + 2.31813694049701 x[102] + 2.229241131469788 x[103]
   + 0.9728208761192981 x[104] + 4.525634433758881 x[105]
   + 1.080343352029228 x[106] + 4.287788997534955 x[107]
   + 1.374860352622004 x[108] + 1.536973904801122 x[109]
   + 0.2780486719188536 x[110] + 0.5716174726012982 x[111]
   + 2.712274769496029 x[112] + 1.179954047928811 x[113]
   + 2.527878919231298 x[114] + 4.367199682459656 x[115]
   + 0.8771374040317739 x[116] + 1.339656639664512 x[117]
   + 4.443273943646686 x[118] + 4.885669561283955 x[119]
   + 2.897685180135035 x[120] + 4.259328844062778 x[121]
   + 1.262177539748354 x[122] + 0.9517977361461057 x[123]
   + 0.3039197885369562 x[124] + 3.157433066118446 x[125]
   + 1.382897121562127 x[126] + 0.2759860298023567 x[127]
   + 3.926050682980589 x[128] + 2.345322109819682 x[129]
   + 3.841698828851625 x[130] + 2.614222904324492 x[131]
   + 1.163630006771436 x[132] + 1.959552250733902 x[133]
   + 2.702781389484138 x[134] + 3.458646989855704 x[135]
   + 2.064398458822773 x[136] + 2.598516938985325 x[137]
   + 0.7704867312761915 x[138] + 4.834536336025885 x[139]
   + 4.72104895439427 x[140] + 4.206334987373137 x[141]
   + 3.266387603403255 x[142] + 0.2823343375221512 x[143]
   + 2.185811872872833 x[144] + 2.509847365131071 x[145]
   + 1.129708027777964 x[146] + 2.688017422097516 x[147]
   + 3.152570883389223 x[148] + 1.541698891645918 x[149] + 24 u[0]
   + 56 u[1] + 94 u[2] + 67 u[3] + 100 u[4] + 82 u[5] + u[6] + 96 u[7]
   + 9 u[8] + 2 u[9] + 36 u[10] + 43 u[11] + 48 u[12] + 96 u[13] + 77 u[14]
   + 17 u[15] + 93 u[16] + 32 u[17] + 29 u[18] + 10 u[19] + 37 u[20]
   + 92 u[21] + 48 u[22] + 47 u[23] + u[24] + 68 u[25] + 46 u[26]
   + 16 u[27] + 14 u[28] + 55 u[29] + 90 u[30] + 52 u[31] + 12 u[32]
   + 49 u[33] + 12 u[34] + 85 u[35] + 72 u[36] + 85 u[37] + 72 u[38]
   + 27 u[39] + 91 u[40] + 2 u[41] + 14 u[42] + 46 u[43] + 79 u[44]
   + 3 u[45] + 90 u[46] + 30 u[47] + 39 u[48] + 60 u[49] + 27 u[50]
   + 60 u[51] + 41 u[52] + 88 u[53] + 85 u[54] + 12 u[55] + 29 u[56]
   + 43 u[57] + 44 u[58] + 50 u[59] + 97 u[60] + 63 u[61] + 64 u[62]
   + 55 u[63] + 68 u[64] + 16 u[65] + 41 u[66] + 15 u[67] + 40 u[68]
   + 82 u[69] + 70 u[70] + 2 u[71] + 6 u[72] + 23 u[73] + 20 u[74]
   + 89 u[75] + 47 u[76] + 7 u[77] + u[78] + 3 u[79] + 86 u[80] + 34 u[81]
   + 95 u[82] + 54 u[83] + 54 u[84] + 38 u[85] + 20 u[86] + 64 u[87]
   + 66 u[88] + 79 u[89] + 41 u[90] + 97 u[91] + 5 u[92] + 92 u[93]
   + 24 u[94] + 69 u[95] + 53 u[96] + 81 u[97] + 72 u[98] + 4 u[99]
   + 69 u[100] + 96 u[101] + 54 u[102] + 32 u[103] + 65 u[104] + 62 u[105]
   + 95 u[106] + 99 u[107] + 95 u[108] + 49 u[109] + 83 u[110] + 11 u[111]
   + 89 u[112] + 45 u[113] + 93 u[114] + 67 u[115] + 59 u[116] + 33 u[117]
   + 53 u[118] + 89 u[119] + 20 u[120] + 93 u[121] + 32 u[122] + 79 u[123]
   + 89 u[124] + 67 u[125] + 76 u[126] + 88 u[127] + 91 u[128] + 51 u[129]
   + 90 u[130] + 77 u[131] + 71 u[132] + 52 u[133] + 73 u[134] + 58 u[135]
   + 41 u[136] + 15 u[137] + 62 u[138] + 4 u[139] + 15 u[140] + 89 u[141]
   + 47 u[142] + 15 u[143] + 81 u[144] + 50 u[145] + 26 u[146] + 31 u[147]
   + 61 u[148] + 82 u[149] <= 85106
 mccormick1[0]: - u[0] + r[0] <= 0
 mccormick1[1]: - u[1] + r[1] <= 0
 mccormick1[2]: - u[2] + r[2] <= 0
 mccormick1[3]: - u[3] + r[3] <= 0
 mccormick1[4]: - u[4] + r[4] <= 0
 mccormick1[5]: - u[5] + r[5] <= 0
 mccormick1[6]: - u[6] + r[6] <= 0
 mccormick1[7]: - u[7] + r[7] <= 0
 mccormick1[8]: - u[8] + r[8] <= 0
 mccormick1[9]: - u[9] + r[9] <= 0
 mccormick1[10]: - u[10] + r[10] <= 0
 mccormick1[11]: - u[11] + r[11] <= 0
 mccormick1[12]: - u[12] + r[12] <= 0
 mccormick1[13]: - u[13] + r[13] <= 0
 mccormick1[14]: - u[14] + r[14] <= 0
 mccormick1[15]: - u[15] + r[15] <= 0
 mccormick1[16]: - u[16] + r[16] <= 0
 mccormick1[17]: - u[17] + r[17] <= 0
 mccormick1[18]: - u[18] + r[18] <= 0
 mccormick1[19]: - u[19] + r[19] <= 0
 mccormick1[20]: - u[20] + r[20] <= 0
 mccormick1[21]: - u[21] + r[21] <= 0
 mccormick1[22]: - u[22] + r[22] <= 0
 mccormick1[23]: - u[23] + r[23] <= 0
 mccormick1[24]: - u[24] + r[24] <= 0
 mccormick1[25]: - u[25] + r[25] <= 0
 mccormick1[26]: - u[26] + r[26] <= 0
 mccormick1[27]: - u[27] + r[27] <= 0
 mccormick1[28]: - u[28] + r[28] <= 0
 mccormick1[29]: - u[29] + r[29] <= 0
 mccormick1[30]: - u[30] + r[30] <= 0
 mccormick1[31]: - u[31] + r[31] <= 0
 mccormick1[32]: - u[32] + r[32] <= 0
 mccormick1[33]: - u[33] + r[33] <= 0
 mccormick1[34]: - u[34] + r[34] <= 0
 mccormick1[35]: - u[35] + r[35] <= 0
 mccormick1[36]: - u[36] + r[36] <= 0
 mccormick1[37]: - u[37] + r[37] <= 0
 mccormick1[38]: - u[38] + r[38] <= 0
 mccormick1[39]: - u[39] + r[39] <= 0
 mccormick1[40]: - u[40] + r[40] <= 0
 mccormick1[41]: - u[41] + r[41] <= 0
 mccormick1[42]: - u[42] + r[42] <= 0
 mccormick1[43]: - u[43] + r[43] <= 0
 mccormick1[44]: - u[44] + r[44] <= 0
 mccormick1[45]: - u[45] + r[45] <= 0
 mccormick1[46]: - u[46] + r[46] <= 0
 mccormick1[47]: - u[47] + r[47] <= 0
 mccormick1[48]: - u[48] + r[48] <= 0
 mccormick1[49]: - u[49] + r[49] <= 0
 mccormick1[50]: - u[50] + r[50] <= 0
 mccormick1[51]: - u[51] + r[51] <= 0
 mccormick1[52]: - u[52] + r[52] <= 0
 mccormick1[53]: - u[53] + r[53] <= 0
 mccormick1[54]: - u[54] + r[54] <= 0
 mccormick1[55]: - u[55] + r[55] <= 0
 mccormick1[56]: - u[56] + r[56] <= 0
 mccormick1[57]: - u[57] + r[57] <= 0
 mccormick1[58]: - u[58] + r[58] <= 0
 mccormick1[59]: - u[59] + r[59] <= 0
 mccormick1[60]: - u[60] + r[60] <= 0
 mccormick1[61]: - u[61] + r[61] <= 0
 mccormick1[62]: - u[62] + r[62] <= 0
 mccormick1[63]: - u[63] + r[63] <= 0
 mccormick1[64]: - u[64] + r[64] <= 0
 mccormick1[65]: - u[65] + r[65] <= 0
 mccormick1[66]: - u[66] + r[66] <= 0
 mccormick1[67]: - u[67] + r[67] <= 0
 mccormick1[68]: - u[68] + r[68] <= 0
 mccormick1[69]: - u[69] + r[69] <= 0
 mccormick1[70]: - u[70] + r[70] <= 0
 mccormick1[71]: - u[71] + r[71] <= 0
 mccormick1[72]: - u[72] + r[72] <= 0
 mccormick1[73]: - u[73] + r[73] <= 0
 mccormick1[74]: - u[74] + r[74] <= 0
 mccormick1[75]: - u[75] + r[75] <= 0
 mccormick1[76]: - u[76] + r[76] <= 0
 mccormick1[77]: - u[77] + r[77] <= 0
 mccormick1[78]: - u[78] + r[78] <= 0
 mccormick1[79]: - u[79] + r[79] <= 0
 mccormick1[80]: - u[80] + r[80] <= 0
 mccormick1[81]: - u[81] + r[81] <= 0
 mccormick1[82]: - u[82] + r[82] <= 0
 mccormick1[83]: - u[83] + r[83] <= 0
 mccormick1[84]: - u[84] + r[84] <= 0
 mccormick1[85]: - u[85] + r[85] <= 0
 mccormick1[86]: - u[86] + r[86] <= 0
 mccormick1[87]: - u[87] + r[87] <= 0
 mccormick1[88]: - u[88] + r[88] <= 0
 mccormick1[89]: - u[89] + r[89] <= 0
 mccormick1[90]: - u[90] + r[90] <= 0
 mccormick1[91]: - u[91] + r[91] <= 0
 mccormick1[92]: - u[92] + r[92] <= 0
 mccormick1[93]: - u[93] + r[93] <= 0
 mccormick1[94]: - u[94] + r[94] <= 0
 mccormick1[95]: - u[95] + r[95] <= 0
 mccormick1[96]: - u[96] + r[96] <= 0
 mccormick1[97]: - u[97] + r[97] <= 0
 mccormick1[98]: - u[98] + r[98] <= 0
 mccormick1[99]: - u[99] + r[99] <= 0
 mccormick1[100]: - u[100] + r[100] <= 0
 mccormick1[101]: - u[101] + r[101] <= 0
 mccormick1[102]: - u[102] + r[102] <= 0
 mccormick1[103]: - u[103] + r[103] <= 0
 mccormick1[104]: - u[104] + r[104] <= 0
 mccormick1[105]: - u[105] + r[105] <= 0
 mccormick1[106]: - u[106] + r[106] <= 0
 mccormick1[107]: - u[107] + r[107] <= 0
 mccormick1[108]: - u[108] + r[108] <= 0
 mccormick1[109]: - u[109] + r[109] <= 0
 mccormick1[110]: - u[110] + r[110] <= 0
 mccormick1[111]: - u[111] + r[111] <= 0
 mccormick1[112]: - u[112] + r[112] <= 0
 mccormick1[113]: - u[113] + r[113] <= 0
 mccormick1[114]: - u[114] + r[114] <= 0
 mccormick1[115]: - u[115] + r[115] <= 0
 mccormick1[116]: - u[116] + r[116] <= 0
 mccormick1[117]: - u[117] + r[117] <= 0
 mccormick1[118]: - u[118] + r[118] <= 0
 mccormick1[119]: - u[119] + r[119] <= 0
 mccormick1[120]: - u[120] + r[120] <= 0
 mccormick1[121]: - u[121] + r[121] <= 0
 mccormick1[122]: - u[122] + r[122] <= 0
 mccormick1[123]: - u[123] + r[123] <= 0
 mccormick1[124]: - u[124] + r[124] <= 0
 mccormick1[125]: - u[125] + r[125] <= 0
 mccormick1[126]: - u[126] + r[126] <= 0
 mccormick1[127]: - u[127] + r[127] <= 0
 mccormick1[128]: - u[128] + r[128] <= 0
 mccormick1[129]: - u[129] + r[129] <= 0
 mccormick1[130]: - u[130] + r[130] <= 0
 mccormick1[131]: - u[131] + r[131] <= 0
 mccormick1[132]: - u[132] + r[132] <= 0
 mccormick1[133]: - u[133] + r[133] <= 0
 mccormick1[134]: - u[134] + r[134] <= 0
 mccormick1[135]: - u[135] + r[135] <= 0
 mccormick1[136]: - u[136] + r[136] <= 0
 mccormick1[137]: - u[137] + r[137] <= 0
 mccormick1[138]: - u[138] + r[138] <= 0
 mccormick1[139]: - u[139] + r[139] <= 0
 mccormick1[140]: - u[140] + r[140] <= 0
 mccormick1[141]: - u[141] + r[141] <= 0
 mccormick1[142]: - u[142] + r[142] <= 0
 mccormick1[143]: - u[143] + r[143] <= 0
 mccormick1[144]: - u[144] + r[144] <= 0
 mccormick1[145]: - u[145] + r[145] <= 0
 mccormick1[146]: - u[146] + r[146] <= 0
 mccormick1[147]: - u[147] + r[147] <= 0
 mccormick1[148]: - u[148] + r[148] <= 0
 mccormick1[149]: - u[149] + r[149] <= 0
 mccormick2[0]: - x[0] + r[0] <= 0
 mccormick2[1]: - x[1] + r[1] <= 0
 mccormick2[2]: - x[2] + r[2] <= 0
 mccormick2[3]: - x[3] + r[3] <= 0
 mccormick2[4]: - x[4] + r[4] <= 0
 mccormick2[5]: - x[5] + r[5] <= 0
 mccormick2[6]: - x[6] + r[6] <= 0
 mccormick2[7]: - x[7] + r[7] <= 0
 mccormick2[8]: - x[8] + r[8] <= 0
 mccormick2[9]: - x[9] + r[9] <= 0
 mccormick2[10]: - x[10] + r[10] <= 0
 mccormick2[11]: - x[11] + r[11] <= 0
 mccormick2[12]: - x[12] + r[12] <= 0
 mccormick2[13]: - x[13] + r[13] <= 0
 mccormick2[14]: - x[14] + r[14] <= 0
 mccormick2[15]: - x[15] + r[15] <= 0
 mccormick2[16]: - x[16] + r[16] <= 0
 mccormick2[17]: - x[17] + r[17] <= 0
 mccormick2[18]: - x[18] + r[18] <= 0
 mccormick2[19]: - x[19] + r[19] <= 0
 mccormick2[20]: - x[20] + r[20] <= 0
 mccormick2[21]: - x[21] + r[21] <= 0
 mccormick2[22]: - x[22] + r[22] <= 0
 mccormick2[23]: - x[23] + r[23] <= 0
 mccormick2[24]: - x[24] + r[24] <= 0
 mccormick2[25]: - x[25] + r[25] <= 0
 mccormick2[26]: - x[26] + r[26] <= 0
 mccormick2[27]: - x[27] + r[27] <= 0
 mccormick2[28]: - x[28] + r[28] <= 0
 mccormick2[29]: - x[29] + r[29] <= 0
 mccormick2[30]: - x[30] + r[30] <= 0
 mccormick2[31]: - x[31] + r[31] <= 0
 mccormick2[32]: - x[32] + r[32] <= 0
 mccormick2[33]: - x[33] + r[33] <= 0
 mccormick2[34]: - x[34] + r[34] <= 0
 mccormick2[35]: - x[35] + r[35] <= 0
 mccormick2[36]: - x[36] + r[36] <= 0
 mccormick2[37]: - x[37] + r[37] <= 0
 mccormick2[38]: - x[38] + r[38] <= 0
 mccormick2[39]: - x[39] + r[39] <= 0
 mccormick2[40]: - x[40] + r[40] <= 0
 mccormick2[41]: - x[41] + r[41] <= 0
 mccormick2[42]: - x[42] + r[42] <= 0
 mccormick2[43]: - x[43] + r[43] <= 0
 mccormick2[44]: - x[44] + r[44] <= 0
 mccormick2[45]: - x[45] + r[45] <= 0
 mccormick2[46]: - x[46] + r[46] <= 0
 mccormick2[47]: - x[47] + r[47] <= 0
 mccormick2[48]: - x[48] + r[48] <= 0
 mccormick2[49]: - x[49] + r[49] <= 0
 mccormick2[50]: - x[50] + r[50] <= 0
 mccormick2[51]: - x[51] + r[51] <= 0
 mccormick2[52]: - x[52] + r[52] <= 0
 mccormick2[53]: - x[53] + r[53] <= 0
 mccormick2[54]: - x[54] + r[54] <= 0
 mccormick2[55]: - x[55] + r[55] <= 0
 mccormick2[56]: - x[56] + r[56] <= 0
 mccormick2[57]: - x[57] + r[57] <= 0
 mccormick2[58]: - x[58] + r[58] <= 0
 mccormick2[59]: - x[59] + r[59] <= 0
 mccormick2[60]: - x[60] + r[60] <= 0
 mccormick2[61]: - x[61] + r[61] <= 0
 mccormick2[62]: - x[62] + r[62] <= 0
 mccormick2[63]: - x[63] + r[63] <= 0
 mccormick2[64]: - x[64] + r[64] <= 0
 mccormick2[65]: - x[65] + r[65] <= 0
 mccormick2[66]: - x[66] + r[66] <= 0
 mccormick2[67]: - x[67] + r[67] <= 0
 mccormick2[68]: - x[68] + r[68] <= 0
 mccormick2[69]: - x[69] + r[69] <= 0
 mccormick2[70]: - x[70] + r[70] <= 0
 mccormick2[71]: - x[71] + r[71] <= 0
 mccormick2[72]: - x[72] + r[72] <= 0
 mccormick2[73]: - x[73] + r[73] <= 0
 mccormick2[74]: - x[74] + r[74] <= 0
 mccormick2[75]: - x[75] + r[75] <= 0
 mccormick2[76]: - x[76] + r[76] <= 0
 mccormick2[77]: - x[77] + r[77] <= 0
 mccormick2[78]: - x[78] + r[78] <= 0
 mccormick2[79]: - x[79] + r[79] <= 0
 mccormick2[80]: - x[80] + r[80] <= 0
 mccormick2[81]: - x[81] + r[81] <= 0
 mccormick2[82]: - x[82] + r[82] <= 0
 mccormick2[83]: - x[83] + r[83] <= 0
 mccormick2[84]: - x[84] + r[84] <= 0
 mccormick2[85]: - x[85] + r[85] <= 0
 mccormick2[86]: - x[86] + r[86] <= 0
 mccormick2[87]: - x[87] + r[87] <= 0
 mccormick2[88]: - x[88] + r[88] <= 0
 mccormick2[89]: - x[89] + r[89] <= 0
 mccormick2[90]: - x[90] + r[90] <= 0
 mccormick2[91]: - x[91] + r[91] <= 0
 mccormick2[92]: - x[92] + r[92] <= 0
 mccormick2[93]: - x[93] + r[93] <= 0
 mccormick2[94]: - x[94] + r[94] <= 0
 mccormick2[95]: - x[95] + r[95] <= 0
 mccormick2[96]: - x[96] + r[96] <= 0
 mccormick2[97]: - x[97] + r[97] <= 0
 mccormick2[98]: - x[98] + r[98] <= 0
 mccormick2[99]: - x[99] + r[99] <= 0
 mccormick2[100]: - x[100] + r[100] <= 0
 mccormick2[101]: - x[101] + r[101] <= 0
 mccormick2[102]: - x[102] + r[102] <= 0
 mccormick2[103]: - x[103] + r[103] <= 0
 mccormick2[104]: - x[104] + r[104] <= 0
 mccormick2[105]: - x[105] + r[105] <= 0
 mccormick2[106]: - x[106] + r[106] <= 0
 mccormick2[107]: - x[107] + r[107] <= 0
 mccormick2[108]: - x[108] + r[108] <= 0
 mccormick2[109]: - x[109] + r[109] <= 0
 mccormick2[110]: - x[110] + r[110] <= 0
 mccormick2[111]: - x[111] + r[111] <= 0
 mccormick2[112]: - x[112] + r[112] <= 0
 mccormick2[113]: - x[113] + r[113] <= 0
 mccormick2[114]: - x[114] + r[114] <= 0
 mccormick2[115]: - x[115] + r[115] <= 0
 mccormick2[116]: - x[116] + r[116] <= 0
 mccormick2[117]: - x[117] + r[117] <= 0
 mccormick2[118]: - x[118] + r[118] <= 0
 mccormick2[119]: - x[119] + r[119] <= 0
 mccormick2[120]: - x[120] + r[120] <= 0
 mccormick2[121]: - x[121] + r[121] <= 0
 mccormick2[122]: - x[122] + r[122] <= 0
 mccormick2[123]: - x[123] + r[123] <= 0
 mccormick2[124]: - x[124] + r[124] <= 0
 mccormick2[125]: - x[125] + r[125] <= 0
 mccormick2[126]: - x[126] + r[126] <= 0
 mccormick2[127]: - x[127] + r[127] <= 0
 mccormick2[128]: - x[128] + r[128] <= 0
 mccormick2[129]: - x[129] + r[129] <= 0
 mccormick2[130]: - x[130] + r[130] <= 0
 mccormick2[131]: - x[131] + r[131] <= 0
 mccormick2[132]: - x[132] + r[132] <= 0
 mccormick2[133]: - x[133] + r[133] <= 0
 mccormick2[134]: - x[134] + r[134] <= 0
 mccormick2[135]: - x[135] + r[135] <= 0
 mccormick2[136]: - x[136] + r[136] <= 0
 mccormick2[137]: - x[137] + r[137] <= 0
 mccormick2[138]: - x[138] + r[138] <= 0
 mccormick2[139]: - x[139] + r[139] <= 0
 mccormick2[140]: - x[140] + r[140] <= 0
 mccormick2[141]: - x[141] + r[141] <= 0
 mccormick2[142]: - x[142] + r[142] <= 0
 mccormick2[143]: - x[143] + r[143] <= 0
 mccormick2[144]: - x[144] + r[144] <= 0
 mccormick2[145]: - x[145] + r[145] <= 0
 mccormick2[146]: - x[146] + r[146] <= 0
 mccormick2[147]: - x[147] + r[147] <= 0
 mccormick2[148]: - x[148] + r[148] <= 0
 mccormick2[149]: - x[149] + r[149] <= 0
 mccormick3[0]: x[0] + u[0] - r[0] <= 1
 mccormick3[1]: x[1] + u[1] - r[1] <= 1
 mccormick3[2]: x[2] + u[2] - r[2] <= 1
 mccormick3[3]: x[3] + u[3] - r[3] <= 1
 mccormick3[4]: x[4] + u[4] - r[4] <= 1
 mccormick3[5]: x[5] + u[5] - r[5] <= 1
 mccormick3[6]: x[6] + u[6] - r[6] <= 1
 mccormick3[7]: x[7] + u[7] - r[7] <= 1
 mccormick3[8]: x[8] + u[8] - r[8] <= 1
 mccormick3[9]: x[9] + u[9] - r[9] <= 1
 mccormick3[10]: x[10] + u[10] - r[10] <= 1
 mccormick3[11]: x[11] + u[11] - r[11] <= 1
 mccormick3[12]: x[12] + u[12] - r[12] <= 1
 mccormick3[13]: x[13] + u[13] - r[13] <= 1
 mccormick3[14]: x[14] + u[14] - r[14] <= 1
 mccormick3[15]: x[15] + u[15] - r[15] <= 1
 mccormick3[16]: x[16] + u[16] - r[16] <= 1
 mccormick3[17]: x[17] + u[17] - r[17] <= 1
 mccormick3[18]: x[18] + u[18] - r[18] <= 1
 mccormick3[19]: x[19] + u[19] - r[19] <= 1
 mccormick3[20]: x[20] + u[20] - r[20] <= 1
 mccormick3[21]: x[21] + u[21] - r[21] <= 1
 mccormick3[22]: x[22] + u[22] - r[22] <= 1
 mccormick3[23]: x[23] + u[23] - r[23] <= 1
 mccormick3[24]: x[24] + u[24] - r[24] <= 1
 mccormick3[25]: x[25] + u[25] - r[25] <= 1
 mccormick3[26]: x[26] + u[26] - r[26] <= 1
 mccormick3[27]: x[27] + u[27] - r[27] <= 1
 mccormick3[28]: x[28] + u[28] - r[28] <= 1
 mccormick3[29]: x[29] + u[29] - r[29] <= 1
 mccormick3[30]: x[30] + u[30] - r[30] <= 1
 mccormick3[31]: x[31] + u[31] - r[31] <= 1
 mccormick3[32]: x[32] + u[32] - r[32] <= 1
 mccormick3[33]: x[33] + u[33] - r[33] <= 1
 mccormick3[34]: x[34] + u[34] - r[34] <= 1
 mccormick3[35]: x[35] + u[35] - r[35] <= 1
 mccormick3[36]: x[36] + u[36] - r[36] <= 1
 mccormick3[37]: x[37] + u[37] - r[37] <= 1
 mccormick3[38]: x[38] + u[38] - r[38] <= 1
 mccormick3[39]: x[39] + u[39] - r[39] <= 1
 mccormick3[40]: x[40] + u[40] - r[40] <= 1
 mccormick3[41]: x[41] + u[41] - r[41] <= 1
 mccormick3[42]: x[42] + u[42] - r[42] <= 1
 mccormick3[43]: x[43] + u[43] - r[43] <= 1
 mccormick3[44]: x[44] + u[44] - r[44] <= 1
 mccormick3[45]: x[45] + u[45] - r[45] <= 1
 mccormick3[46]: x[46] + u[46] - r[46] <= 1
 mccormick3[47]: x[47] + u[47] - r[47] <= 1
 mccormick3[48]: x[48] + u[48] - r[48] <= 1
 mccormick3[49]: x[49] + u[49] - r[49] <= 1
 mccormick3[50]: x[50] + u[50] - r[50] <= 1
 mccormick3[51]: x[51] + u[51] - r[51] <= 1
 mccormick3[52]: x[52] + u[52] - r[52] <= 1
 mccormick3[53]: x[53] + u[53] - r[53] <= 1
 mccormick3[54]: x[54] + u[54] - r[54] <= 1
 mccormick3[55]: x[55] + u[55] - r[55] <= 1
 mccormick3[56]: x[56] + u[56] - r[56] <= 1
 mccormick3[57]: x[57] + u[57] - r[57] <= 1
 mccormick3[58]: x[58] + u[58] - r[58] <= 1
 mccormick3[59]: x[59] + u[59] - r[59] <= 1
 mccormick3[60]: x[60] + u[60] - r[60] <= 1
 mccormick3[61]: x[61] + u[61] - r[61] <= 1
 mccormick3[62]: x[62] + u[62] - r[62] <= 1
 mccormick3[63]: x[63] + u[63] - r[63] <= 1
 mccormick3[64]: x[64] + u[64] - r[64] <= 1
 mccormick3[65]: x[65] + u[65] - r[65] <= 1
 mccormick3[66]: x[66] + u[66] - r[66] <= 1
 mccormick3[67]: x[67] + u[67] - r[67] <= 1
 mccormick3[68]: x[68] + u[68] - r[68] <= 1
 mccormick3[69]: x[69] + u[69] - r[69] <= 1
 mccormick3[70]: x[70] + u[70] - r[70] <= 1
 mccormick3[71]: x[71] + u[71] - r[71] <= 1
 mccormick3[72]: x[72] + u[72] - r[72] <= 1
 mccormick3[73]: x[73] + u[73] - r[73] <= 1
 mccormick3[74]: x[74] + u[74] - r[74] <= 1
 mccormick3[75]: x[75] + u[75] - r[75] <= 1
 mccormick3[76]: x[76] + u[76] - r[76] <= 1
 mccormick3[77]: x[77] + u[77] - r[77] <= 1
 mccormick3[78]: x[78] + u[78] - r[78] <= 1
 mccormick3[79]: x[79] + u[79] - r[79] <= 1
 mccormick3[80]: x[80] + u[80] - r[80] <= 1
 mccormick3[81]: x[81] + u[81] - r[81] <= 1
 mccormick3[82]: x[82] + u[82] - r[82] <= 1
 mccormick3[83]: x[83] + u[83] - r[83] <= 1
 mccormick3[84]: x[84] + u[84] - r[84] <= 1
 mccormick3[85]: x[85] + u[85] - r[85] <= 1
 mccormick3[86]: x[86] + u[86] - r[86] <= 1
 mccormick3[87]: x[87] + u[87] - r[87] <= 1
 mccormick3[88]: x[88] + u[88] - r[88] <= 1
 mccormick3[89]: x[89] + u[89] - r[89] <= 1
 mccormick3[90]: x[90] + u[90] - r[90] <= 1
 mccormick3[91]: x[91] + u[91] - r[91] <= 1
 mccormick3[92]: x[92] + u[92] - r[92] <= 1
 mccormick3[93]: x[93] + u[93] - r[93] <= 1
 mccormick3[94]: x[94] + u[94] - r[94] <= 1
 mccormick3[95]: x[95] + u[95] - r[95] <= 1
 mccormick3[96]: x[96] + u[96] - r[96] <= 1
 mccormick3[97]: x[97] + u[97] - r[97] <= 1
 mccormick3[98]: x[98] + u[98] - r[98] <= 1
 mccormick3[99]: x[99] + u[99] - r[99] <= 1
 mccormick3[100]: x[100] + u[100] - r[100] <= 1
 mccormick3[101]: x[101] + u[101] - r[101] <= 1
 mccormick3[102]: x[102] + u[102] - r[102] <= 1
 mccormick3[103]: x[103] + u[103] - r[103] <= 1
 mccormick3[104]: x[104] + u[104] - r[104] <= 1
 mccormick3[105]: x[105] + u[105] - r[105] <= 1
 mccormick3[106]: x[106] + u[106] - r[106] <= 1
 mccormick3[107]: x[107] + u[107] - r[107] <= 1
 mccormick3[108]: x[108] + u[108] - r[108] <= 1
 mccormick3[109]: x[109] + u[109] - r[109] <= 1
 mccormick3[110]: x[110] + u[110] - r[110] <= 1
 mccormick3[111]: x[111] + u[111] - r[111] <= 1
 mccormick3[112]: x[112] + u[112] - r[112] <= 1
 mccormick3[113]: x[113] + u[113] - r[113] <= 1
 mccormick3[114]: x[114] + u[114] - r[114] <= 1
 mccormick3[115]: x[115] + u[115] - r[115] <= 1
 mccormick3[116]: x[116] + u[116] - r[116] <= 1
 mccormick3[117]: x[117] + u[117] - r[117] <= 1
 mccormick3[118]: x[118] + u[118] - r[118] <= 1
 mccormick3[119]: x[119] + u[119] - r[119] <= 1
 mccormick3[120]: x[120] + u[120] - r[120] <= 1
 mccormick3[121]: x[121] + u[121] - r[121] <= 1
 mccormick3[122]: x[122] + u[122] - r[122] <= 1
 mccormick3[123]: x[123] + u[123] - r[123] <= 1
 mccormick3[124]: x[124] + u[124] - r[124] <= 1
 mccormick3[125]: x[125] + u[125] - r[125] <= 1
 mccormick3[126]: x[126] + u[126] - r[126] <= 1
 mccormick3[127]: x[127] + u[127] - r[127] <= 1
 mccormick3[128]: x[128] + u[128] - r[128] <= 1
 mccormick3[129]: x[129] + u[129] - r[129] <= 1
 mccormick3[130]: x[130] + u[130] - r[130] <= 1
 mccormick3[131]: x[131] + u[131] - r[131] <= 1
 mccormick3[132]: x[132] + u[132] - r[132] <= 1
 mccormick3[133]: x[133] + u[133] - r[133] <= 1
 mccormick3[134]: x[134] + u[134] - r[134] <= 1
 mccormick3[135]: x[135] + u[135] - r[135] <= 1
 mccormick3[136]: x[136] + u[136] - r[136] <= 1
 mccormick3[137]: x[137] + u[137] - r[137] <= 1
 mccormick3[138]: x[138] + u[138] - r[138] <= 1
 mccormick3[139]: x[139] + u[139] - r[139] <= 1
 mccormick3[140]: x[140] + u[140] - r[140] <= 1
 mccormick3[141]: x[141] + u[141] - r[141] <= 1
 mccormick3[142]: x[142] + u[142] - r[142] <= 1
 mccormick3[143]: x[143] + u[143] - r[143] <= 1
 mccormick3[144]: x[144] + u[144] - r[144] <= 1
 mccormick3[145]: x[145] + u[145] - r[145] <= 1
 mccormick3[146]: x[146] + u[146] - r[146] <= 1
 mccormick3[147]: x[147] + u[147] - r[147] <= 1
 mccormick3[148]: x[148] + u[148] - r[148] <= 1
 mccormick3[149]: x[149] + u[149] - r[149] <= 1
Bounds
Binaries
 x[0] x[1] x[2] x[3] x[4] x[5] x[6] x[7] x[8] x[9] x[10] x[11] x[12] x[13]
 x[14] x[15] x[16] x[17] x[18] x[19] x[20] x[21] x[22] x[23] x[24] x[25]
 x[26] x[27] x[28] x[29] x[30] x[31] x[32] x[33] x[34] x[35] x[36] x[37]
 x[38] x[39] x[40] x[41] x[42] x[43] x[44] x[45] x[46] x[47] x[48] x[49]
 x[50] x[51] x[52] x[53] x[54] x[55] x[56] x[57] x[58] x[59] x[60] x[61]
 x[62] x[63] x[64] x[65] x[66] x[67] x[68] x[69] x[70] x[71] x[72] x[73]
 x[74] x[75] x[76] x[77] x[78] x[79] x[80] x[81] x[82] x[83] x[84] x[85]
 x[86] x[87] x[88] x[89] x[90] x[91] x[92] x[93] x[94] x[95] x[96] x[97]
 x[98] x[99] x[100] x[101] x[102] x[103] x[104] x[105] x[106] x[107] x[108]
 x[109] x[110] x[111] x[112] x[113] x[114] x[115] x[116] x[117] x[118]
 x[119] x[120] x[121] x[122] x[123] x[124] x[125] x[126] x[127] x[128]
 x[129] x[130] x[131] x[132] x[133] x[134] x[135] x[136] x[137] x[138]
 x[139] x[140] x[141] x[142] x[143] x[144] x[145] x[146] x[147] x[148]
 x[149] u[0] u[1] u[2] u[3] u[4] u[5] u[6] u[7] u[8] u[9] u[10] u[11] u[12]
 u[13] u[14] u[15] u[16] u[17] u[18] u[19] u[20] u[21] u[22] u[23] u[24]
 u[25] u[26] u[27] u[28] u[29] u[30] u[31] u[32] u[33] u[34] u[35] u[36]
 u[37] u[38] u[39] u[40] u[41] u[42] u[43] u[44] u[45] u[46] u[47] u[48]
 u[49] u[50] u[51] u[52] u[53] u[54] u[55] u[56] u[57] u[58] u[59] u[60]
 u[61] u[62] u[63] u[64] u[65] u[66] u[67] u[68] u[69] u[70] u[71] u[72]
 u[73] u[74] u[75] u[76] u[77] u[78] u[79] u[80] u[81] u[82] u[83] u[84]
 u[85] u[86] u[87] u[88] u[89] u[90] u[91] u[92] u[93] u[94] u[95] u[96]
 u[97] u[98] u[99] u[100] u[101] u[102] u[103] u[104] u[105] u[106] u[107]
 u[108] u[109] u[110] u[111] u[112] u[113] u[114] u[115] u[116] u[117]
 u[118] u[119] u[120] u[121] u[122] u[123] u[124] u[125] u[126] u[127]
 u[128] u[129] u[130] u[131] u[132] u[133] u[134] u[135] u[136] u[137]
 u[138] u[139] u[140] u[141] u[142] u[143] u[144] u[145] u[146] u[147]
 u[148] u[149] r[0] r[1] r[2] r[3] r[4] r[5] r[6] r[7] r[8] r[9] r[10]
 r[11] r[12] r[13] r[14] r[15] r[16] r[17] r[18] r[19] r[20] r[21] r[22]
 r[23] r[24] r[25] r[26] r[27] r[28] r[29] r[30] r[31] r[32] r[33] r[34]
 r[35] r[36] r[37] r[38] r[39] r[40] r[41] r[42] r[43] r[44] r[45] r[46]
 r[47] r[48] r[49] r[50] r[51] r[52] r[53] r[54] r[55] r[56] r[57] r[58]
 r[59] r[60] r[61] r[62] r[63] r[64] r[65] r[66] r[67] r[68] r[69] r[70]
 r[71] r[72] r[73] r[74] r[75] r[76] r[77] r[78] r[79] r[80] r[81] r[82]
 r[83] r[84] r[85] r[86] r[87] r[88] r[89] r[90] r[91] r[92] r[93] r[94]
 r[95] r[96] r[97] r[98] r[99] r[100] r[101] r[102] r[103] r[104] r[105]
 r[106] r[107] r[108] r[109] r[110] r[111] r[112] r[113] r[114] r[115]
 r[116] r[117] r[118] r[119] r[120] r[121] r[122] r[123] r[124] r[125]
 r[126] r[127] r[128] r[129] r[130] r[131] r[132] r[133] r[134] r[135]
 r[136] r[137] r[138] r[139] r[140] r[141] r[142] r[143] r[144] r[145]
 r[146] r[147] r[148] r[149]
End
