instances/knapsack/discrete_knapsack_uncertainty/knapsack_150_6.kp
26316
150
733

9 0.9 19
25 2.5 88
23 2.3 69
48 4.8 49
21 2.1 19
67 6.7 66
58 5.8 55
41 4.1 5
22 2.2 96
79 7.9 100
9 0.9 12
92 9.2 52
97 9.7 12
77 7.7 3
30 3.0 100
38 3.8 13
70 7.0 7
9 0.9 79
22 2.2 4
75 7.5 35
82 8.2 19
85 8.5 76
29 2.9 33
64 6.4 17
26 2.6 78
9 0.9 48
35 3.5 1
69 6.9 85
43 4.3 23
92 9.2 38
87 8.7 94
81 8.1 37
41 4.1 17
34 3.4 16
93 9.3 37
62 6.2 98
33 3.3 6
10 1.0 80
29 2.9 8
16 1.6 65
32 3.2 37
19 1.9 27
67 6.7 59
67 6.7 24
92 9.2 72
68 6.8 76
67 6.7 2
35 3.5 50
12 1.2 70
45 4.5 75
68 6.8 96
33 3.3 8
18 1.8 76
33 3.3 94
94 9.4 49
65 6.5 83
34 3.4 4
20 2.0 69
37 3.7 37
47 4.7 92
54 5.4 69
96 9.6 43
97 9.7 79
16 1.6 19
85 8.5 32
5 0.5 38
82 8.2 90
8 0.8 59
5 0.5 26
87 8.7 67
71 7.1 50
87 8.7 16
59 5.9 2
96 9.6 19
17 1.7 96
14 1.4 7
60 6.0 99
56 5.6 54
78 7.8 89
84 8.4 33
47 4.7 96
59 5.9 59
52 5.2 11
63 6.3 55
59 5.9 62
7 0.7 98
57 5.7 67
21 2.1 44
59 5.9 29
80 8.0 76
18 1.8 19
42 4.2 95
70 7.0 31
77 7.7 98
81 8.1 33
74 7.4 76
62 6.2 22
22 2.2 21
37 3.7 94
49 4.9 30
26 2.6 94
69 6.9 23
23 2.3 8
81 8.1 55
30 3.0 72
43 4.3 4
92 9.2 55
12 1.2 78
40 4.0 75
90 9.0 22
80 8.0 15
60 6.0 91
22 2.2 27
78 7.8 1
98 9.8 95
56 5.6 50
52 5.2 80
26 2.6 66
62 6.2 55
42 4.2 92
89 8.9 27
98 9.8 92
81 8.1 35
72 7.2 40
26 2.6 29
92 9.2 10
17 1.7 50
25 2.5 67
16 1.6 61
72 7.2 42
55 5.5 56
10 1.0 84
48 4.8 49
77 7.7 72
78 7.8 51
47 4.7 1
90 9.0 58
20 2.0 15
39 3.9 76
1 0.1 39
64 6.4 91
6 0.6 58
28 2.8 83
48 4.8 5
42 4.2 13
75 7.5 76
39 3.9 50
88 8.8 36
82 8.2 78
19 1.9 96

85106
754

[0.6382408606132902 2.1078779349676067 0.13317924716125593 0.4116347999165533 0.043400301766016294 0.5872767020273594 4.906211493472088 0.017948987203140036 2.9115807924752124 2.57956964019134 3.0446033735366034 0.25588830611544666 4.381580404270685 0.1880285385800895 1.8177179859939372 0.568846509681943 1.1540330326297392 2.485793888236291 2.243987291197522 2.4042620806725266 4.192350499178394 2.003095785651373 1.744060542443395 4.346222752703176 3.825213634061406 4.45123708836634 0.8984829302739121 3.9803305173793393 1.5046090071099836 1.8115918163119196 1.502184159015989 2.867753373450522 1.8527665423062227 4.022611612972085 0.8137679121931723 0.6327576712470994 2.713563172845529 3.945781529666564 3.354366099504166 4.720681547111411 4.512259071101535 1.0343250681054728 3.7238986854630736 0.009106741110836885 1.4355777209981944 2.040117478215025 4.791896465157695 4.971015872022412 2.8583745684176534 4.417213109763437 4.4528907508555085 3.702930685245731 4.884727097397698 0.43830449401895283 4.604572087264582 3.946595388473125 0.735665619225133 4.4527428602611 3.9090675135195827 0.11749342988948852 3.066063158832497 4.7004941006093 3.8919587869985066 4.998313506711965 3.0345101135823 1.023508262589073 2.867697160955231 1.763259930230768 1.9725300573079523 4.255876561790477 1.7780716643205976 1.4503750732908647 4.558379428964164 2.9324887640458486 3.2621210226738215 0.2056999096120521 4.522655683781882 0.735517823571968 2.974371264382824 0.02842559920265663 1.7795073988618417 1.9722206346132 2.874521286933957 2.4152885415460856 0.25501859623775286 3.799959206244127 1.6472151824605197 1.8791894907825533 2.779968449582999 3.3333243229075302 0.5596407574985159 3.489417107421433 4.445913124787584 4.9870014480514895 2.9520848674849356 3.281313361889985 3.727965569398793 2.1563242371485076 4.543353942291708 4.453390797084182 3.3480503203455925 1.287795868778805 2.3181369404970105 2.2292411314697875 0.9728208761192981 4.525634433758881 1.0803433520292285 4.287788997534955 1.374860352622004 1.536973904801122 0.2780486719188536 0.5716174726012982 2.712274769496029 1.179954047928811 2.5278789192312985 4.367199682459656 0.8771374040317739 1.339656639664512 4.443273943646686 4.885669561283955 2.8976851801350345 4.259328844062778 1.2621775397483541 0.9517977361461057 0.3039197885369562 3.157433066118446 1.3828971215621266 0.2759860298023567 3.9260506829805886 2.3453221098196817 3.841698828851625 2.6142229043244924 1.1636300067714365 1.9595522507339023 2.702781389484138 3.458646989855704 2.0643984588227733 2.5985169389853247 0.7704867312761915 4.834536336025885 4.72104895439427 4.206334987373137 3.266387603403255 0.2823343375221512 2.185811872872833 2.5098473651310713 1.129708027777964 2.688017422097516 3.1525708833892225 1.5416988916459184]

[24 56 94 67 100 82 1 96 9 2 36 43 48 96 77 17 93 32 29 10 37 92 48 47 1 68 46 16 14 55 90 52 12 49 12 85 72 85 72 27 91 2 14 46 79 3 90 30 39 60 27 60 41 88 85 12 29 43 44 50 97 63 64 55 68 16 41 15 40 82 70 2 6 23 20 89 47 7 1 3 86 34 95 54 54 38 20 64 66 79 41 97 5 92 24 69 53 81 72 4 69 96 54 32 65 62 95 99 95 49 83 11 89 45 93 67 59 33 53 89 20 93 32 79 89 67 76 88 91 51 90 77 71 52 73 58 41 15 62 4 15 89 47 15 81 50 26 31 61 82]
